c This is an instance of the exact track of PACE 2020 Challenge, see https://pacechallenge.org/2020/ 
c TYPE: generated 
c ORIGIN: Python networkx package 
c DESCRIPTION: A random cubic graph generated using random_regular_graph function from Python’s networkx package 
p tdp 200 300
1 2
1 13
1 112
2 75
2 148
3 4
3 96
3 44
4 69
4 64
5 6
5 48
5 135
6 147
6 196
7 8
7 191
7 67
8 142
8 59
9 10
9 154
9 116
10 174
10 190
11 12
11 155
11 172
12 94
12 127
13 113
13 179
14 15
14 27
14 183
15 22
15 68
16 17
16 43
16 168
17 49
17 138
18 19
18 166
18 100
19 140
19 21
20 21
20 138
20 93
21 129
22 24
22 133
23 24
23 111
23 146
24 65
25 26
25 70
25 122
26 48
26 119
27 50
27 60
28 29
28 47
28 197
29 180
29 152
30 31
30 140
30 163
31 165
31 104
32 33
32 61
32 134
33 141
33 183
34 35
34 66
34 152
35 36
35 80
36 195
36 152
37 38
37 165
37 155
38 159
38 71
39 40
39 60
39 147
40 97
40 164
41 42
41 115
41 175
42 137
42 118
43 44
43 115
44 106
45 46
45 83
45 186
46 128
46 77
47 142
47 176
48 197
49 93
49 199
50 192
50 103
51 52
51 114
51 195
52 59
52 114
53 54
53 134
53 58
54 79
54 200
55 56
55 84
55 59
56 63
56 76
57 58
57 115
57 102
58 93
60 75
61 180
61 185
62 63
62 88
62 70
63 89
64 65
64 157
65 121
66 116
66 110
67 68
67 163
68 160
69 120
69 182
70 156
71 72
71 155
72 138
72 145
73 74
73 104
73 130
74 84
74 193
75 105
76 77
76 176
77 139
78 79
78 151
78 185
79 103
80 81
80 124
81 187
81 194
82 83
82 143
82 190
83 156
84 98
85 86
85 121
85 116
86 164
86 198
87 88
87 146
87 200
88 153
89 90
89 94
90 119
90 131
91 92
91 154
91 188
92 157
92 150
94 200
95 96
95 112
95 142
96 125
97 182
97 139
98 193
98 197
99 100
99 105
99 162
100 137
101 102
101 184
101 147
102 151
103 120
104 170
105 144
106 107
106 199
107 148
107 194
108 109
108 125
108 198
109 162
109 141
110 111
110 173
111 113
112 130
113 114
117 118
117 143
117 178
118 156
119 120
121 196
122 123
122 186
123 126
123 143
124 129
124 196
125 126
126 194
127 176
127 166
128 167
128 177
129 164
130 161
131 132
131 167
132 133
132 149
133 189
134 160
135 136
135 189
136 189
136 184
137 150
139 180
140 157
141 144
144 158
145 146
145 178
148 149
149 175
150 177
151 187
153 161
153 184
154 171
158 159
158 183
159 171
160 168
161 192
162 167
163 188
165 166
168 169
169 198
169 174
170 171
170 182
172 186
172 193
173 181
173 190
174 175
177 192
178 199
179 195
179 191
181 185
181 191
187 188
